********************************************************************************
Field Output Report, written Fri May 24 12:14:38 2019

Source 1
---------

   ODB: C:/temp/JobModel4v2.odb
   Step: Loadss
   Frame: Increment      1: Step Time =   2.2200E-16

Loc 1 : Integration point values from source 1

Output sorted by column "Element Label".

Field Output reported at integration points for part: PART4-1

   Element Label             Int           E.E11           S.S11
                              Pt          @Loc 1          @Loc 1
-----------------------------------------------------------------
               1               1    -11.2540E-06    -22.5079E+03
               2               1              0.              0.
               3               1              0.              0.
               4               1     7.95775E-06     15.9155E+03
               5               1    -34.4836E-06    -68.9672E+03
               6               1     20.6902E-06     41.3803E+03
               7               1     20.6902E-06     41.3803E+03
               8               1     25.0694E-06     50.1388E+03
               9               1     25.0694E-06     50.1388E+03
              10               1     11.8293E-06     23.6586E+03
              11               1    -100.470E-06    -200.939E+03
              12               1    -3.00821E-06    -6.01641E+03
              13               1    -14.9460E-06    -29.8920E+03
              14               1    -7.95775E-06    -15.9155E+03
              15               1     271.051E-21     542.101E-12
              16               1     27.5869E-06     55.1738E+03
              17               1     27.5869E-06     55.1738E+03
              18               1     35.5113E-06     71.0226E+03
              19               1     40.6188E-06     81.2376E+03
              20               1    -76.1634E-06    -152.327E+03
              21               1     17.0143E-36     34.0287E-27
              22               1     89.6697E-06     179.339E+03
              23               1    -67.6980E-06    -135.396E+03
              24               1    -58.9405E-06    -117.881E+03
              25               1              0.              0.
              26               1    -35.5446E-06    -71.0893E+03
              27               1     8.42272E-06     16.8454E+03
              28               1     8.42272E-06     16.8454E+03
              29               1    -23.8689E-06    -47.7379E+03
              30               1     21.6523E-36     43.3047E-27
              31               1     83.1437E-06     166.287E+03
              32               1     19.8602E-06     39.7203E+03
              33               1    -35.5446E-06    -71.0893E+03
              34               1    -57.4436E-06    -114.887E+03


  Minimum                           -100.470E-06    -200.939E+03
      At Element                              11              11
          Int Pt                               1               1

  Maximum                            89.6697E-06     179.339E+03
      At Element                              22              22
          Int Pt                               1               1

           Total                    -75.1938E-06    -150.388E+03


********************************************************************************
Field Output Report, written Fri May 24 12:15:10 2019

Source 1
---------

   ODB: C:/temp/JobModel4v2.odb
   Step: Loadss
   Frame: Increment      1: Step Time =   2.2200E-16

Loc 1 : Nodal values from source 1

Output sorted by column "Node Label".

Field Output reported at nodes for part: PART4-1

      Node Label          CF.CF1          CF.CF2          RF.RF1          RF.RF2            U.U1            U.U2
                          @Loc 1          @Loc 1          @Loc 1          @Loc 1          @Loc 1          @Loc 1
-----------------------------------------------------------------------------------------------------------------
               1              0.              0.              0.              0.     2.12492E-03    -257.104E-06
               2              5.             -5.              0.              0.     2.73116E-03     315.367E-06
               3              0.              0.              0.              0.     2.73116E-03    -257.104E-06
               4              8.              0.              0.              0.     2.11299E-03     315.367E-06
               5              0.              0.              0.              0.     1.22723E-03    -241.188E-06
               6              0.              0.              0.              0.     1.19620E-03     260.193E-06
               7             10.            -10.              0.              0.     1.16516E-03     79.7120E-06
               8              0.              0.              0.              0.     1.12675E-03     54.6426E-06
               9              0.              0.              0.              0.     945.550E-06     29.5732E-06
              10              0.              0.        -32.4785         46.6983     32.4785E-36    -46.6983E-36
              11             20.              0.              0.              0.     915.760E-06     207.859E-06
              12             15.             -5.              0.              0.     1.11412E-03     204.851E-06
              13              0.              0.              0.              0.     1.13939E-03     232.606E-06
              14              0.              0.              0.              0.     521.194E-06     179.339E-06
              15              0.              0.              0.              0.     582.122E-06    -152.327E-06
              16              0.              0.        -25.5215         81.8835     25.5215E-36    -81.8835E-36
              17              0.              0.    -10.6904E-30        -56.3411              0.     56.3411E-36
              18              0.              0.              0.              0.     1.13939E-03    -205.644E-06
              19              0.              0.    -13.6045E-30        -52.2407              0.     52.2407E-36


  Minimum                     0.            -10.        -32.4785        -56.3411              0.    -257.104E-06
         At Node              19               7              10              17              19               3

  Maximum                    20.              0.              0.         81.8835     2.73116E-03     315.367E-06
         At Node              11              19              18              16               3               4

           Total             58.            -20.            -58.         20.0000     20.7731E-03     766.144E-06


