********************************************************************************
Field Output Report, written Fri May 24 12:48:53 2019

Source 1
---------

   ODB: C:/temp/JOBMODEL2RICHTIG.odb
   Step: Loading
   Frame: Increment      1: Step Time =   2.2200E-16

Loc 1 : Nodal values from source 1

Output sorted by column "Node Label".

Field Output reported at nodes for part: PART-1-1

      Node Label          CF.CF1          CF.CF2          RF.RF1          RF.RF2            U.U1            U.U2
                          @Loc 1          @Loc 1          @Loc 1          @Loc 1          @Loc 1          @Loc 1
-----------------------------------------------------------------------------------------------------------------
               1         50.E+03              0.              0.              0.     178.461E-03    -24.6184E-03
               2              0.              0.              0.              0.    -54.1654E-03    -152.335E-03
               3              0.              0.              0.              0.    -80.4401E-03    -241.017E-03
               4              0.              0.              0.              0.     36.7281E-03    -198.639E-03
               5              0.              0.              0.              0.     93.4212E-03    -38.7206E-03
               6              0.              0.              0.              0.     85.5045E-03    -16.5664E-03
               7              0.              0.              0.              0.     125.199E-03    -38.7206E-03
               8              0.              0.              0.              0.    -64.3362E-03    -489.916E-03
               9              0.              0.              0.              0.     6.21554E-03    -447.537E-03
              10              0.              0.    -26.2130E+03     17.7515E+03     26.2130E-33    -17.7515E-33
              11              0.              0.              0.              0.     34.3266E-03    -39.7110E-03
              12        -40.E+03        -60.E+03              0.              0.    -353.920E-03    -537.663E-03
              13              0.              0.              0.              0.    -53.6003E-03    -567.887E-03
              14              0.              0.              0.              0.    -66.6756E-03    -472.394E-03
              15              0.              0.              0.              0.     52.6286E-03    -67.8115E-03
              16              0.              0.              0.              0.     52.6286E-03    -2.24852E-33
              17              0.         40.E+03              0.              0.    -33.3378E-03     27.6815E-03
              18              0.              0.     16.2130E+03     2.24852E+03    -16.2130E-33    -2.24852E-33


  Minimum               -40.E+03        -60.E+03    -26.2130E+03              0.    -353.920E-03    -567.887E-03
         At Node              12              12              10              17              12              13

  Maximum                50.E+03         40.E+03     16.2130E+03     17.7515E+03     178.461E-03     27.6815E-03
         At Node               1              17              18              10               1              17

           Total         10.E+03        -20.E+03   -10.00000E+03     20.0000E+03    -41.3617E-03        -3.30585


********************************************************************************
Field Output Report, written Fri May 24 12:49:12 2019

Source 1
---------

   ODB: C:/temp/JOBMODEL2RICHTIG.odb
   Step: Loading
   Frame: Increment      1: Step Time =   2.2200E-16

Loc 1 : Integration point values from source 1

Output sorted by column "Element Label".

Field Output reported at integration points for part: PART-1-1

   Element Label             Int           E.E11           S.S11
                              Pt          @Loc 1          @Loc 1
-----------------------------------------------------------------
               1               1    -12.6313E-03    -25.2626E+06
               2               1    -17.5165E-03    -35.0329E+06
               3               1     28.2524E-03     56.5048E+06
               4               1    -56.6931E-03    -113.386E+06
               5               1    -56.6931E-03    -113.386E+06
               6               1     5.36795E-03     10.7359E+06
               7               1     26.4631E-03     52.9261E+06
               8               1    -22.4547E-03    -44.9093E+06
               9               1     14.8632E-03     29.7264E+06
              10               1     10.7359E-03     21.4718E+06
              11               1     28.2524E-03     56.5048E+06
              12               1    -39.9549E-03    -79.9098E+06
              13               1              0.              0.
              14               1     33.9551E-03     67.9103E+06
              15               1     22.8844E-03     45.7689E+06
              16               1    -24.1223E-03    -48.2446E+06
              17               1     46.5864E-03     93.1729E+06
              18               1     27.5037E-03     55.0073E+06
              19               1    -20.3417E-03    -40.6834E+06
              20               1     31.8310E-03     63.6620E+06
              21               1     90.0317E-03     180.063E+06
              22               1     7.15727E-03     14.3145E+06
              23               1     5.06095E-03     10.1219E+06
              24               1    -48.5941E-03    -97.1882E+06
              25               1     70.8193E-03     141.639E+06
              26               1     63.6620E-03     127.324E+06
              27               1    -95.0927E-03    -190.185E+06
              28               1              0.              0.
              29               1     63.6620E-03     127.324E+06
              30               1     22.2252E-03     44.4504E+06
              31               1     5.06095E-03     10.1219E+06
              32               1     22.2252E-03     44.4504E+06
              33               1              0.              0.


  Minimum                           -95.0927E-03    -190.185E+06
      At Element                              27              27
          Int Pt                               1               1

  Maximum                            90.0317E-03     180.063E+06
      At Element                              21              21
          Int Pt                               1               1

           Total                     232.506E-03     465.012E+06


