********************************************************************************
Field Output Report, written Fri May 24 11:28:26 2019

Source 1
---------

   ODB: C:/temp/Job1v2.odb
   Step: Loading
   Frame: Increment      1: Step Time =   2.2200E-16

Loc 1 : Integration point values from source 1

Output sorted by column "Element Label".

Field Output reported at integration points for part: TRUSS1-1

   Element Label             Int           E.E11           S.S11
                              Pt          @Loc 1          @Loc 1
-----------------------------------------------------------------
               1               1     124.559E-06     249.117E+03
               2               1     270.095E-06     540.190E+03
               3               1     254.648E-06     509.296E+03
               4               1              0.              0.
               5               1    -90.0317E-06    -180.063E+03
               6               1    -127.324E-06    -254.648E+03
               7               1    -238.733E-06    -477.465E+03
               8               1    -55.7043E-06    -111.409E+03
               9               1     111.409E-06     222.817E+03
              10               1    -67.5238E-06    -135.048E+03
              11               1     88.9704E-06     177.941E+03
              12               1    -175.071E-06    -350.141E+03
              13               1              0.              0.
              14               1              0.              0.
              15               1     254.648E-06     509.296E+03
              16               1    -23.7305E-06    -47.4610E+03
              17               1    -366.057E-06    -732.113E+03
              18               1     90.0317E-06     180.063E+03
              19               1    -142.353E-06    -284.705E+03
              20               1     227.274E-06     454.549E+03
              21               1     155.287E-06     310.574E+03
              22               1    -101.272E-36    -202.545E-27
              23               1    -198.582E-06    -397.165E+03
              24               1    -241.363E-06    -482.726E+03
              25               1     103.728E-36     207.455E-27


  Minimum                           -366.057E-06    -732.113E+03
      At Element                              17              17
          Int Pt                               1               1

  Maximum                            270.095E-06     540.190E+03
      At Element                               2               2
          Int Pt                               1               1

           Total                    -149.550E-06    -299.101E+03


********************************************************************************
Field Output Report, written Fri May 24 11:28:59 2019

Source 1
---------

   ODB: C:/temp/Job1v2.odb
   Step: Loading
   Frame: Increment      1: Step Time =   2.2200E-16

Loc 1 : Nodal values from source 1

Output sorted by column "Node Label".

Field Output reported at nodes for part: TRUSS1-1

      Node Label          CF.CF1          CF.CF2          RF.RF1          RF.RF2            U.U1            U.U2
                          @Loc 1          @Loc 1          @Loc 1          @Loc 1          @Loc 1          @Loc 1
-----------------------------------------------------------------------------------------------------------------
               1              0.              0.              0.              0.     12.6228E-03    -7.35536E-03
               2              0.              0.              0.              0.     9.65189E-03    -2.03633E-03
               3              0.              0.              0.              0.     5.10215E-03     1.43303E-03
               4              0.              0.              0.              0.     2.10027E-03     923.738E-06
               5              0.              0.              0.              0.     2.10027E-03    -1.20872E-03
               6              0.              0.              0.              0.     4.84750E-03    -1.68619E-03
               7              0.              0.              0.              0.     7.27050E-03    -7.24395E-03
               8             40.            -30.              0.              0.     12.8456E-03    -13.0892E-03
               9              0.              0.              0.              0.     9.65189E-03     1.43303E-03
              10              0.              0.              0.              0.     116.980E-06     414.441E-06
              11              0.              0.              0.              0.     69.5188E-06    -476.607E-06
              12              0.              0.        -79.2115        -118.817     79.2115E-36     118.817E-36
              13              0.              0.         123.333         22.6345    -123.333E-36    -22.6345E-36
              14              0.              0.        -84.1218         126.183     84.1218E-36    -126.183E-36


  Minimum                     0.            -30.        -84.1218        -118.817    -123.333E-36    -13.0892E-03
         At Node              14               8              14              12              13               8

  Maximum                    40.              0.         123.333         126.183     12.8456E-03     1.43303E-03
         At Node               8              14              13              14               8               9

           Total             40.            -30.        -40.0000         30.0000     66.3794E-03    -28.8921E-03


